data/lp_files/pEFS/57_2.lp
\ Model foo
\ LP format - for model browsing. Use MPS format to capture full model detail.
Minimize
  z
Subject To
 allocateEach[1]: x[1,1] + x[2,1] + x[3,1] = 1
 allocateEach[2]: x[1,2] + x[2,2] + x[3,2] = 1
 allocateEach[3]: x[1,3] + x[2,3] + x[3,3] = 1
 allocateEach[4]: x[1,4] + x[2,4] + x[3,4] = 1
 allocateEach[5]: x[1,5] + x[2,5] + x[3,5] = 1
 allocateEach[6]: x[1,6] + x[2,6] + x[3,6] = 1
 allocateEach[7]: x[1,7] + x[2,7] + x[3,7] = 1
 allocateEach[8]: x[1,8] + x[2,8] + x[3,8] = 1
 allocateEach[9]: x[1,9] + x[2,9] + x[3,9] = 1
 allocateEach[10]: x[1,10] + x[2,10] + x[3,10] = 1
 allocateEach[11]: x[1,11] + x[2,11] + x[3,11] = 1
 allocateEach[12]: x[1,12] + x[2,12] + x[3,12] = 1
 allocateEach[13]: x[1,13] + x[2,13] + x[3,13] = 1
 allocateEach[14]: x[1,14] + x[2,14] + x[3,14] = 1
 allocateEach[15]: x[1,15] + x[2,15] + x[3,15] = 1
 allocateEach[16]: x[1,16] + x[2,16] + x[3,16] = 1
 allocateEach[17]: x[1,17] + x[2,17] + x[3,17] = 1
 allocateAllCash: cashProportion[1] + cashProportion[2] + cashProportion[3]
   = 1
 findWorstP[1,2]: z + 0.0169811961554572 cashProportion[1]
   - 0.0169811961554572 cashProportion[2] + 0.00879625960852682 x[1,1]
   + 0.1004154732659368 x[1,2] + 0.0101547553009634 x[1,3]
   + 0.0858456069645546 x[1,4] + 0.0354340959777207 x[1,5]
   + 0.0752266989686753 x[1,6] + 0.096792818086106 x[1,7]
   + 0.1121324986132023 x[1,8] + 0.1029739734866924 x[1,9]
   + 0.0245434888433541 x[1,10] + 0.0469926301608685 x[1,11]
   + 0.09124562734199 x[1,12] + 0.0931588421088381 x[1,13]
   + 0.0442303555862475 x[1,14] + 0.0217246102815482 x[1,15]
   + 0.0323208766825535 x[1,16] + 0.0010301925667644 x[1,17]
   - 0.00879625960852682 x[2,1] - 0.1004154732659368 x[2,2]
   - 0.0101547553009634 x[2,3] - 0.0858456069645546 x[2,4]
   - 0.0354340959777207 x[2,5] - 0.0752266989686753 x[2,6]
   - 0.096792818086106 x[2,7] - 0.1121324986132023 x[2,8]
   - 0.1029739734866924 x[2,9] - 0.0245434888433541 x[2,10]
   - 0.0469926301608685 x[2,11] - 0.09124562734199 x[2,12]
   - 0.0931588421088381 x[2,13] - 0.0442303555862475 x[2,14]
   - 0.0217246102815482 x[2,15] - 0.0323208766825535 x[2,16]
   - 0.0010301925667644 x[2,17] >= 0
 findWorstP[1,3]: z + 0.0169811961554572 cashProportion[1]
   - 0.0169811961554572 cashProportion[3] + 0.00879625960852682 x[1,1]
   + 0.1004154732659368 x[1,2] + 0.0101547553009634 x[1,3]
   + 0.0858456069645546 x[1,4] + 0.0354340959777207 x[1,5]
   + 0.0752266989686753 x[1,6] + 0.096792818086106 x[1,7]
   + 0.1121324986132023 x[1,8] + 0.1029739734866924 x[1,9]
   + 0.0245434888433541 x[1,10] + 0.0469926301608685 x[1,11]
   + 0.09124562734199 x[1,12] + 0.0931588421088381 x[1,13]
   + 0.0442303555862475 x[1,14] + 0.0217246102815482 x[1,15]
   + 0.0323208766825535 x[1,16] + 0.0010301925667644 x[1,17]
   - 0.00879625960852682 x[3,1] - 0.1004154732659368 x[3,2]
   - 0.0101547553009634 x[3,3] - 0.0858456069645546 x[3,4]
   - 0.0354340959777207 x[3,5] - 0.0752266989686753 x[3,6]
   - 0.096792818086106 x[3,7] - 0.1121324986132023 x[3,8]
   - 0.1029739734866924 x[3,9] - 0.0245434888433541 x[3,10]
   - 0.0469926301608685 x[3,11] - 0.09124562734199 x[3,12]
   - 0.0931588421088381 x[3,13] - 0.0442303555862475 x[3,14]
   - 0.0217246102815482 x[3,15] - 0.0323208766825535 x[3,16]
   - 0.0010301925667644 x[3,17] >= 0
 findWorstP[2,1]: z - 0.0163737583233271 cashProportion[1]
   + 0.0163737583233271 cashProportion[2] - 0.0358257832114398 x[1,1]
   - 0.0999454208055889 x[1,2] - 0.0892151511843685 x[1,3]
   - 0.1085143543281301 x[1,4] - 0.0145289815522323 x[1,5]
   - 0.0250300185569261 x[1,6] - 0.00582905796310446 x[1,7]
   - 0.0113961357930357 x[1,8] - 0.1074773496343194 x[1,9]
   - 0.0845322563038969 x[1,10] - 0.0619692173343521 x[1,11]
   - 0.0291889531710512 x[1,12] - 0.0549721646108503 x[1,13]
   - 0.00435541971400502 x[1,14] - 0.1057635629298112 x[1,15]
   - 0.0814212422224648 x[1,16] - 0.063661172361096 x[1,17]
   + 0.0358257832114398 x[2,1] + 0.0999454208055889 x[2,2]
   + 0.0892151511843685 x[2,3] + 0.1085143543281301 x[2,4]
   + 0.0145289815522323 x[2,5] + 0.0250300185569261 x[2,6]
   + 0.00582905796310446 x[2,7] + 0.0113961357930357 x[2,8]
   + 0.1074773496343194 x[2,9] + 0.0845322563038969 x[2,10]
   + 0.0619692173343521 x[2,11] + 0.0291889531710512 x[2,12]
   + 0.0549721646108503 x[2,13] + 0.00435541971400502 x[2,14]
   + 0.1057635629298112 x[2,15] + 0.0814212422224648 x[2,16]
   + 0.063661172361096 x[2,17] >= 0
 findWorstP[2,3]: z + 0.0163737583233271 cashProportion[2]
   - 0.0163737583233271 cashProportion[3] + 0.0358257832114398 x[2,1]
   + 0.0999454208055889 x[2,2] + 0.0892151511843685 x[2,3]
   + 0.1085143543281301 x[2,4] + 0.0145289815522323 x[2,5]
   + 0.0250300185569261 x[2,6] + 0.00582905796310446 x[2,7]
   + 0.0113961357930357 x[2,8] + 0.1074773496343194 x[2,9]
   + 0.0845322563038969 x[2,10] + 0.0619692173343521 x[2,11]
   + 0.0291889531710512 x[2,12] + 0.0549721646108503 x[2,13]
   + 0.00435541971400502 x[2,14] + 0.1057635629298112 x[2,15]
   + 0.0814212422224648 x[2,16] + 0.063661172361096 x[2,17]
   - 0.0358257832114398 x[3,1] - 0.0999454208055889 x[3,2]
   - 0.0892151511843685 x[3,3] - 0.1085143543281301 x[3,4]
   - 0.0145289815522323 x[3,5] - 0.0250300185569261 x[3,6]
   - 0.00582905796310446 x[3,7] - 0.0113961357930357 x[3,8]
   - 0.1074773496343194 x[3,9] - 0.0845322563038969 x[3,10]
   - 0.0619692173343521 x[3,11] - 0.0291889531710512 x[3,12]
   - 0.0549721646108503 x[3,13] - 0.00435541971400502 x[3,14]
   - 0.1057635629298112 x[3,15] - 0.0814212422224648 x[3,16]
   - 0.063661172361096 x[3,17] >= 0
 findWorstP[3,1]: z - 0.0149587139494994 cashProportion[1]
   + 0.0149587139494994 cashProportion[3] - 0.0892237424707806 x[1,1]
   - 0.0824923211935059 x[1,2] - 0.0994754477641709 x[1,3]
   - 0.015247915752523 x[1,4] - 0.0398599864374327 x[1,5]
   - 0.0877777334556624 x[1,6] - 0.0360704455702262 x[1,7]
   - 0.0750229366947226 x[1,8] - 0.0762495512385815 x[1,9]
   - 0.087588256412302 x[1,10] - 0.0185687502493119 x[1,11]
   - 0.0240336670788623 x[1,12] - 0.0663768 x[1,13]
   - 0.0437093621604372 x[1,14] - 0.0171526586620926 x[1,15]
   - 0.0967629343013283 x[1,16] - 0.0294287765766484 x[1,17]
   + 0.0892237424707806 x[3,1] + 0.0824923211935059 x[3,2]
   + 0.0994754477641709 x[3,3] + 0.015247915752523 x[3,4]
   + 0.0398599864374327 x[3,5] + 0.0877777334556624 x[3,6]
   + 0.0360704455702262 x[3,7] + 0.0750229366947226 x[3,8]
   + 0.0762495512385815 x[3,9] + 0.087588256412302 x[3,10]
   + 0.0185687502493119 x[3,11] + 0.0240336670788623 x[3,12]
   + 0.0663768 x[3,13] + 0.0437093621604372 x[3,14]
   + 0.0171526586620926 x[3,15] + 0.0967629343013283 x[3,16]
   + 0.0294287765766484 x[3,17] >= 0
 findWorstP[3,2]: z - 0.0149587139494994 cashProportion[2]
   + 0.0149587139494994 cashProportion[3] - 0.0892237424707806 x[2,1]
   - 0.0824923211935059 x[2,2] - 0.0994754477641709 x[2,3]
   - 0.015247915752523 x[2,4] - 0.0398599864374327 x[2,5]
   - 0.0877777334556624 x[2,6] - 0.0360704455702262 x[2,7]
   - 0.0750229366947226 x[2,8] - 0.0762495512385815 x[2,9]
   - 0.087588256412302 x[2,10] - 0.0185687502493119 x[2,11]
   - 0.0240336670788623 x[2,12] - 0.0663768 x[2,13]
   - 0.0437093621604372 x[2,14] - 0.0171526586620926 x[2,15]
   - 0.0967629343013283 x[2,16] - 0.0294287765766484 x[2,17]
   + 0.0892237424707806 x[3,1] + 0.0824923211935059 x[3,2]
   + 0.0994754477641709 x[3,3] + 0.015247915752523 x[3,4]
   + 0.0398599864374327 x[3,5] + 0.0877777334556624 x[3,6]
   + 0.0360704455702262 x[3,7] + 0.0750229366947226 x[3,8]
   + 0.0762495512385815 x[3,9] + 0.087588256412302 x[3,10]
   + 0.0185687502493119 x[3,11] + 0.0240336670788623 x[3,12]
   + 0.0663768 x[3,13] + 0.0437093621604372 x[3,14]
   + 0.0171526586620926 x[3,15] + 0.0967629343013283 x[3,16]
   + 0.0294287765766484 x[3,17] >= 0
Bounds
 z <= 1
 -infinity <= cashProportion[1] <= 1
 -infinity <= cashProportion[2] <= 1
 -infinity <= cashProportion[3] <= 1
Binaries
 x[1,1] x[1,2] x[1,3] x[1,4] x[1,5] x[1,6] x[1,7] x[1,8] x[1,9] x[1,10]
 x[1,11] x[1,12] x[1,13] x[1,14] x[1,15] x[1,16] x[1,17] x[2,1] x[2,2]
 x[2,3] x[2,4] x[2,5] x[2,6] x[2,7] x[2,8] x[2,9] x[2,10] x[2,11] x[2,12]
 x[2,13] x[2,14] x[2,15] x[2,16] x[2,17] x[3,1] x[3,2] x[3,3] x[3,4] x[3,5]
 x[3,6] x[3,7] x[3,8] x[3,9] x[3,10] x[3,11] x[3,12] x[3,13] x[3,14]
 x[3,15] x[3,16] x[3,17]
End
