data/mps_files/q3/57_2.mps
NAME foo
ROWS
 N  OBJ
 E  allocateEach[1]
 E  allocateEach[2]
 E  allocateEach[3]
 E  allocateEach[4]
 E  allocateEach[5]
 E  allocateEach[6]
 E  allocateEach[7]
 E  allocateEach[8]
 E  allocateEach[9]
 E  allocateEach[10]
 E  allocateEach[11]
 E  allocateEach[12]
 E  allocateEach[13]
 E  allocateEach[14]
 E  allocateEach[15]
 E  allocateEach[16]
 E  allocateEach[17]
 E  allocateAllCash
 G  findWorstP[1,2]
 G  findWorstP[1,3]
 G  findWorstP[2,1]
 G  findWorstP[2,3]
 G  findWorstP[3,1]
 G  findWorstP[3,2]
COLUMNS
    z         OBJ       1
    z         findWorstP[1,2]  1
    z         findWorstP[1,3]  1
    z         findWorstP[2,1]  1
    z         findWorstP[2,3]  1
    z         findWorstP[3,1]  1
    z         findWorstP[3,2]  1
    cashProportion[1]  allocateAllCash  1
    cashProportion[1]  findWorstP[1,2]  1.6981196155457189e-02
    cashProportion[1]  findWorstP[1,3]  1.6981196155457189e-02
    cashProportion[1]  findWorstP[2,1]  -1.6373758323327148e-02
    cashProportion[1]  findWorstP[3,1]  -1.4958713949499380e-02
    cashProportion[2]  allocateAllCash  1
    cashProportion[2]  findWorstP[1,2]  -1.6981196155457189e-02
    cashProportion[2]  findWorstP[2,1]  1.6373758323327148e-02
    cashProportion[2]  findWorstP[2,3]  1.6373758323327148e-02
    cashProportion[2]  findWorstP[3,2]  -1.4958713949499380e-02
    cashProportion[3]  allocateAllCash  1
    cashProportion[3]  findWorstP[1,3]  -1.6981196155457189e-02
    cashProportion[3]  findWorstP[2,3]  -1.6373758323327148e-02
    cashProportion[3]  findWorstP[3,1]  1.4958713949499380e-02
    cashProportion[3]  findWorstP[3,2]  1.4958713949499380e-02
    MARKER    'MARKER'                 'INTORG'
    x[1,1]    allocateEach[1]  1
    x[1,1]    findWorstP[1,2]  8.7962596085268234e-03
    x[1,1]    findWorstP[1,3]  8.7962596085268234e-03
    x[1,1]    findWorstP[2,1]  -3.5825783211439796e-02
    x[1,1]    findWorstP[3,1]  -8.9223742470780631e-02
    x[1,2]    allocateEach[2]  1
    x[1,2]    findWorstP[1,2]  1.0041547326593683e-01
    x[1,2]    findWorstP[1,3]  1.0041547326593683e-01
    x[1,2]    findWorstP[2,1]  -9.9945420805588908e-02
    x[1,2]    findWorstP[3,1]  -8.2492321193505913e-02
    x[1,3]    allocateEach[3]  1
    x[1,3]    findWorstP[1,2]  1.0154755300963398e-02
    x[1,3]    findWorstP[1,3]  1.0154755300963398e-02
    x[1,3]    findWorstP[2,1]  -8.9215151184368527e-02
    x[1,3]    findWorstP[3,1]  -9.9475447764170874e-02
    x[1,4]    allocateEach[4]  1
    x[1,4]    findWorstP[1,2]  8.5845606964554566e-02
    x[1,4]    findWorstP[1,3]  8.5845606964554566e-02
    x[1,4]    findWorstP[2,1]  -1.0851435432813011e-01
    x[1,4]    findWorstP[3,1]  -1.5247915752523034e-02
    x[1,5]    allocateEach[5]  1
    x[1,5]    findWorstP[1,2]  3.5434095977720667e-02
    x[1,5]    findWorstP[1,3]  3.5434095977720667e-02
    x[1,5]    findWorstP[2,1]  -1.4528981552232289e-02
    x[1,5]    findWorstP[3,1]  -3.9859986437432680e-02
    x[1,6]    allocateEach[6]  1
    x[1,6]    findWorstP[1,2]  7.5226698968675343e-02
    x[1,6]    findWorstP[1,3]  7.5226698968675343e-02
    x[1,6]    findWorstP[2,1]  -0.0250300185569261
    x[1,6]    findWorstP[3,1]  -8.7777733455662352e-02
    x[1,7]    allocateEach[7]  1
    x[1,7]    findWorstP[1,2]  9.6792818086105958e-02
    x[1,7]    findWorstP[1,3]  9.6792818086105958e-02
    x[1,7]    findWorstP[2,1]  -5.8290579631044646e-03
    x[1,7]    findWorstP[3,1]  -3.6070445570226171e-02
    x[1,8]    allocateEach[8]  1
    x[1,8]    findWorstP[1,2]  1.1213249861320229e-01
    x[1,8]    findWorstP[1,3]  1.1213249861320229e-01
    x[1,8]    findWorstP[2,1]  -1.1396135793035696e-02
    x[1,8]    findWorstP[3,1]  -7.5022936694722556e-02
    x[1,9]    allocateEach[9]  1
    x[1,9]    findWorstP[1,2]  1.0297397348669238e-01
    x[1,9]    findWorstP[1,3]  1.0297397348669238e-01
    x[1,9]    findWorstP[2,1]  -1.0747734963431940e-01
    x[1,9]    findWorstP[3,1]  -0.0762495512385815
    x[1,10]   allocateEach[10]  1
    x[1,10]   findWorstP[1,2]  2.4543488843354121e-02
    x[1,10]   findWorstP[1,3]  2.4543488843354121e-02
    x[1,10]   findWorstP[2,1]  -8.4532256303896949e-02
    x[1,10]   findWorstP[3,1]  -8.7588256412302029e-02
    x[1,11]   allocateEach[11]  1
    x[1,11]   findWorstP[1,2]  4.6992630160868527e-02
    x[1,11]   findWorstP[1,3]  4.6992630160868527e-02
    x[1,11]   findWorstP[2,1]  -6.1969217334352143e-02
    x[1,11]   findWorstP[3,1]  -1.8568750249311896e-02
    x[1,12]   allocateEach[12]  1
    x[1,12]   findWorstP[1,2]  9.1245627341989960e-02
    x[1,12]   findWorstP[1,3]  9.1245627341989960e-02
    x[1,12]   findWorstP[2,1]  -2.9188953171051198e-02
    x[1,12]   findWorstP[3,1]  -2.4033667078862335e-02
    x[1,13]   allocateEach[13]  1
    x[1,13]   findWorstP[1,2]  9.3158842108838125e-02
    x[1,13]   findWorstP[1,3]  9.3158842108838125e-02
    x[1,13]   findWorstP[2,1]  -5.4972164610850346e-02
    x[1,13]   findWorstP[3,1]  -0.0663768000319119
    x[1,14]   allocateEach[14]  1
    x[1,14]   findWorstP[1,2]  4.4230355586247487e-02
    x[1,14]   findWorstP[1,3]  4.4230355586247487e-02
    x[1,14]   findWorstP[2,1]  -4.3554197140050210e-03
    x[1,14]   findWorstP[3,1]  -4.3709362160437186e-02
    x[1,15]   allocateEach[15]  1
    x[1,15]   findWorstP[1,2]  2.1724610281548228e-02
    x[1,15]   findWorstP[1,3]  2.1724610281548228e-02
    x[1,15]   findWorstP[2,1]  -1.0576356292981115e-01
    x[1,15]   findWorstP[3,1]  -1.7152658662092621e-02
    x[1,16]   allocateEach[16]  1
    x[1,16]   findWorstP[1,2]  3.2320876682553512e-02
    x[1,16]   findWorstP[1,3]  3.2320876682553512e-02
    x[1,16]   findWorstP[2,1]  -0.0814212422224648
    x[1,16]   findWorstP[3,1]  -9.6762934301328318e-02
    x[1,17]   allocateEach[17]  1
    x[1,17]   findWorstP[1,2]  1.0301925667644026e-03
    x[1,17]   findWorstP[1,3]  1.0301925667644026e-03
    x[1,17]   findWorstP[2,1]  -6.3661172361095961e-02
    x[1,17]   findWorstP[3,1]  -2.9428776576648441e-02
    x[2,1]    allocateEach[1]  1
    x[2,1]    findWorstP[1,2]  -8.7962596085268234e-03
    x[2,1]    findWorstP[2,1]  3.5825783211439796e-02
    x[2,1]    findWorstP[2,3]  3.5825783211439796e-02
    x[2,1]    findWorstP[3,2]  -8.9223742470780631e-02
    x[2,2]    allocateEach[2]  1
    x[2,2]    findWorstP[1,2]  -1.0041547326593683e-01
    x[2,2]    findWorstP[2,1]  9.9945420805588908e-02
    x[2,2]    findWorstP[2,3]  9.9945420805588908e-02
    x[2,2]    findWorstP[3,2]  -8.2492321193505913e-02
    x[2,3]    allocateEach[3]  1
    x[2,3]    findWorstP[1,2]  -1.0154755300963398e-02
    x[2,3]    findWorstP[2,1]  8.9215151184368527e-02
    x[2,3]    findWorstP[2,3]  8.9215151184368527e-02
    x[2,3]    findWorstP[3,2]  -9.9475447764170874e-02
    x[2,4]    allocateEach[4]  1
    x[2,4]    findWorstP[1,2]  -8.5845606964554566e-02
    x[2,4]    findWorstP[2,1]  1.0851435432813011e-01
    x[2,4]    findWorstP[2,3]  1.0851435432813011e-01
    x[2,4]    findWorstP[3,2]  -1.5247915752523034e-02
    x[2,5]    allocateEach[5]  1
    x[2,5]    findWorstP[1,2]  -3.5434095977720667e-02
    x[2,5]    findWorstP[2,1]  1.4528981552232289e-02
    x[2,5]    findWorstP[2,3]  1.4528981552232289e-02
    x[2,5]    findWorstP[3,2]  -3.9859986437432680e-02
    x[2,6]    allocateEach[6]  1
    x[2,6]    findWorstP[1,2]  -7.5226698968675343e-02
    x[2,6]    findWorstP[2,1]  0.0250300185569261
    x[2,6]    findWorstP[2,3]  0.0250300185569261
    x[2,6]    findWorstP[3,2]  -8.7777733455662352e-02
    x[2,7]    allocateEach[7]  1
    x[2,7]    findWorstP[1,2]  -9.6792818086105958e-02
    x[2,7]    findWorstP[2,1]  5.8290579631044646e-03
    x[2,7]    findWorstP[2,3]  5.8290579631044646e-03
    x[2,7]    findWorstP[3,2]  -3.6070445570226171e-02
    x[2,8]    allocateEach[8]  1
    x[2,8]    findWorstP[1,2]  -1.1213249861320229e-01
    x[2,8]    findWorstP[2,1]  1.1396135793035696e-02
    x[2,8]    findWorstP[2,3]  1.1396135793035696e-02
    x[2,8]    findWorstP[3,2]  -7.5022936694722556e-02
    x[2,9]    allocateEach[9]  1
    x[2,9]    findWorstP[1,2]  -1.0297397348669238e-01
    x[2,9]    findWorstP[2,1]  1.0747734963431940e-01
    x[2,9]    findWorstP[2,3]  1.0747734963431940e-01
    x[2,9]    findWorstP[3,2]  -0.0762495512385815
    x[2,10]   allocateEach[10]  1
    x[2,10]   findWorstP[1,2]  -2.4543488843354121e-02
    x[2,10]   findWorstP[2,1]  8.4532256303896949e-02
    x[2,10]   findWorstP[2,3]  8.4532256303896949e-02
    x[2,10]   findWorstP[3,2]  -8.7588256412302029e-02
    x[2,11]   allocateEach[11]  1
    x[2,11]   findWorstP[1,2]  -4.6992630160868527e-02
    x[2,11]   findWorstP[2,1]  6.1969217334352143e-02
    x[2,11]   findWorstP[2,3]  6.1969217334352143e-02
    x[2,11]   findWorstP[3,2]  -1.8568750249311896e-02
    x[2,12]   allocateEach[12]  1
    x[2,12]   findWorstP[1,2]  -9.1245627341989960e-02
    x[2,12]   findWorstP[2,1]  2.9188953171051198e-02
    x[2,12]   findWorstP[2,3]  2.9188953171051198e-02
    x[2,12]   findWorstP[3,2]  -2.4033667078862335e-02
    x[2,13]   allocateEach[13]  1
    x[2,13]   findWorstP[1,2]  -9.3158842108838125e-02
    x[2,13]   findWorstP[2,1]  5.4972164610850346e-02
    x[2,13]   findWorstP[2,3]  5.4972164610850346e-02
    x[2,13]   findWorstP[3,2]  -0.0663768000319119
    x[2,14]   allocateEach[14]  1
    x[2,14]   findWorstP[1,2]  -4.4230355586247487e-02
    x[2,14]   findWorstP[2,1]  4.3554197140050210e-03
    x[2,14]   findWorstP[2,3]  4.3554197140050210e-03
    x[2,14]   findWorstP[3,2]  -4.3709362160437186e-02
    x[2,15]   allocateEach[15]  1
    x[2,15]   findWorstP[1,2]  -2.1724610281548228e-02
    x[2,15]   findWorstP[2,1]  1.0576356292981115e-01
    x[2,15]   findWorstP[2,3]  1.0576356292981115e-01
    x[2,15]   findWorstP[3,2]  -1.7152658662092621e-02
    x[2,16]   allocateEach[16]  1
    x[2,16]   findWorstP[1,2]  -3.2320876682553512e-02
    x[2,16]   findWorstP[2,1]  0.0814212422224648
    x[2,16]   findWorstP[2,3]  0.0814212422224648
    x[2,16]   findWorstP[3,2]  -9.6762934301328318e-02
    x[2,17]   allocateEach[17]  1
    x[2,17]   findWorstP[1,2]  -1.0301925667644026e-03
    x[2,17]   findWorstP[2,1]  6.3661172361095961e-02
    x[2,17]   findWorstP[2,3]  6.3661172361095961e-02
    x[2,17]   findWorstP[3,2]  -2.9428776576648441e-02
    x[3,1]    allocateEach[1]  1
    x[3,1]    findWorstP[1,3]  -8.7962596085268234e-03
    x[3,1]    findWorstP[2,3]  -3.5825783211439796e-02
    x[3,1]    findWorstP[3,1]  8.9223742470780631e-02
    x[3,1]    findWorstP[3,2]  8.9223742470780631e-02
    x[3,2]    allocateEach[2]  1
    x[3,2]    findWorstP[1,3]  -1.0041547326593683e-01
    x[3,2]    findWorstP[2,3]  -9.9945420805588908e-02
    x[3,2]    findWorstP[3,1]  8.2492321193505913e-02
    x[3,2]    findWorstP[3,2]  8.2492321193505913e-02
    x[3,3]    allocateEach[3]  1
    x[3,3]    findWorstP[1,3]  -1.0154755300963398e-02
    x[3,3]    findWorstP[2,3]  -8.9215151184368527e-02
    x[3,3]    findWorstP[3,1]  9.9475447764170874e-02
    x[3,3]    findWorstP[3,2]  9.9475447764170874e-02
    x[3,4]    allocateEach[4]  1
    x[3,4]    findWorstP[1,3]  -8.5845606964554566e-02
    x[3,4]    findWorstP[2,3]  -1.0851435432813011e-01
    x[3,4]    findWorstP[3,1]  1.5247915752523034e-02
    x[3,4]    findWorstP[3,2]  1.5247915752523034e-02
    x[3,5]    allocateEach[5]  1
    x[3,5]    findWorstP[1,3]  -3.5434095977720667e-02
    x[3,5]    findWorstP[2,3]  -1.4528981552232289e-02
    x[3,5]    findWorstP[3,1]  3.9859986437432680e-02
    x[3,5]    findWorstP[3,2]  3.9859986437432680e-02
    x[3,6]    allocateEach[6]  1
    x[3,6]    findWorstP[1,3]  -7.5226698968675343e-02
    x[3,6]    findWorstP[2,3]  -0.0250300185569261
    x[3,6]    findWorstP[3,1]  8.7777733455662352e-02
    x[3,6]    findWorstP[3,2]  8.7777733455662352e-02
    x[3,7]    allocateEach[7]  1
    x[3,7]    findWorstP[1,3]  -9.6792818086105958e-02
    x[3,7]    findWorstP[2,3]  -5.8290579631044646e-03
    x[3,7]    findWorstP[3,1]  3.6070445570226171e-02
    x[3,7]    findWorstP[3,2]  3.6070445570226171e-02
    x[3,8]    allocateEach[8]  1
    x[3,8]    findWorstP[1,3]  -1.1213249861320229e-01
    x[3,8]    findWorstP[2,3]  -1.1396135793035696e-02
    x[3,8]    findWorstP[3,1]  7.5022936694722556e-02
    x[3,8]    findWorstP[3,2]  7.5022936694722556e-02
    x[3,9]    allocateEach[9]  1
    x[3,9]    findWorstP[1,3]  -1.0297397348669238e-01
    x[3,9]    findWorstP[2,3]  -1.0747734963431940e-01
    x[3,9]    findWorstP[3,1]  0.0762495512385815
    x[3,9]    findWorstP[3,2]  0.0762495512385815
    x[3,10]   allocateEach[10]  1
    x[3,10]   findWorstP[1,3]  -2.4543488843354121e-02
    x[3,10]   findWorstP[2,3]  -8.4532256303896949e-02
    x[3,10]   findWorstP[3,1]  8.7588256412302029e-02
    x[3,10]   findWorstP[3,2]  8.7588256412302029e-02
    x[3,11]   allocateEach[11]  1
    x[3,11]   findWorstP[1,3]  -4.6992630160868527e-02
    x[3,11]   findWorstP[2,3]  -6.1969217334352143e-02
    x[3,11]   findWorstP[3,1]  1.8568750249311896e-02
    x[3,11]   findWorstP[3,2]  1.8568750249311896e-02
    x[3,12]   allocateEach[12]  1
    x[3,12]   findWorstP[1,3]  -9.1245627341989960e-02
    x[3,12]   findWorstP[2,3]  -2.9188953171051198e-02
    x[3,12]   findWorstP[3,1]  2.4033667078862335e-02
    x[3,12]   findWorstP[3,2]  2.4033667078862335e-02
    x[3,13]   allocateEach[13]  1
    x[3,13]   findWorstP[1,3]  -9.3158842108838125e-02
    x[3,13]   findWorstP[2,3]  -5.4972164610850346e-02
    x[3,13]   findWorstP[3,1]  0.0663768000319119
    x[3,13]   findWorstP[3,2]  0.0663768000319119
    x[3,14]   allocateEach[14]  1
    x[3,14]   findWorstP[1,3]  -4.4230355586247487e-02
    x[3,14]   findWorstP[2,3]  -4.3554197140050210e-03
    x[3,14]   findWorstP[3,1]  4.3709362160437186e-02
    x[3,14]   findWorstP[3,2]  4.3709362160437186e-02
    x[3,15]   allocateEach[15]  1
    x[3,15]   findWorstP[1,3]  -2.1724610281548228e-02
    x[3,15]   findWorstP[2,3]  -1.0576356292981115e-01
    x[3,15]   findWorstP[3,1]  1.7152658662092621e-02
    x[3,15]   findWorstP[3,2]  1.7152658662092621e-02
    x[3,16]   allocateEach[16]  1
    x[3,16]   findWorstP[1,3]  -3.2320876682553512e-02
    x[3,16]   findWorstP[2,3]  -0.0814212422224648
    x[3,16]   findWorstP[3,1]  9.6762934301328318e-02
    x[3,16]   findWorstP[3,2]  9.6762934301328318e-02
    x[3,17]   allocateEach[17]  1
    x[3,17]   findWorstP[1,3]  -1.0301925667644026e-03
    x[3,17]   findWorstP[2,3]  -6.3661172361095961e-02
    x[3,17]   findWorstP[3,1]  2.9428776576648441e-02
    x[3,17]   findWorstP[3,2]  2.9428776576648441e-02
    MARKER    'MARKER'                 'INTEND'
RHS
    RHS1      allocateEach[1]  1
    RHS1      allocateEach[2]  1
    RHS1      allocateEach[3]  1
    RHS1      allocateEach[4]  1
    RHS1      allocateEach[5]  1
    RHS1      allocateEach[6]  1
    RHS1      allocateEach[7]  1
    RHS1      allocateEach[8]  1
    RHS1      allocateEach[9]  1
    RHS1      allocateEach[10]  1
    RHS1      allocateEach[11]  1
    RHS1      allocateEach[12]  1
    RHS1      allocateEach[13]  1
    RHS1      allocateEach[14]  1
    RHS1      allocateEach[15]  1
    RHS1      allocateEach[16]  1
    RHS1      allocateEach[17]  1
    RHS1      allocateAllCash  1
BOUNDS
 UP BND1      z         1
 MI BND1      cashProportion[1]
 UP BND1      cashProportion[1]  1
 MI BND1      cashProportion[2]
 UP BND1      cashProportion[2]  1
 MI BND1      cashProportion[3]
 UP BND1      cashProportion[3]  1
 BV BND1      x[1,1]  
 BV BND1      x[1,2]  
 BV BND1      x[1,3]  
 BV BND1      x[1,4]  
 BV BND1      x[1,5]  
 BV BND1      x[1,6]  
 BV BND1      x[1,7]  
 BV BND1      x[1,8]  
 BV BND1      x[1,9]  
 BV BND1      x[1,10] 
 BV BND1      x[1,11] 
 BV BND1      x[1,12] 
 BV BND1      x[1,13] 
 BV BND1      x[1,14] 
 BV BND1      x[1,15] 
 BV BND1      x[1,16] 
 BV BND1      x[1,17] 
 BV BND1      x[2,1]  
 BV BND1      x[2,2]  
 BV BND1      x[2,3]  
 BV BND1      x[2,4]  
 BV BND1      x[2,5]  
 BV BND1      x[2,6]  
 BV BND1      x[2,7]  
 BV BND1      x[2,8]  
 BV BND1      x[2,9]  
 BV BND1      x[2,10] 
 BV BND1      x[2,11] 
 BV BND1      x[2,12] 
 BV BND1      x[2,13] 
 BV BND1      x[2,14] 
 BV BND1      x[2,15] 
 BV BND1      x[2,16] 
 BV BND1      x[2,17] 
 BV BND1      x[3,1]  
 BV BND1      x[3,2]  
 BV BND1      x[3,3]  
 BV BND1      x[3,4]  
 BV BND1      x[3,5]  
 BV BND1      x[3,6]  
 BV BND1      x[3,7]  
 BV BND1      x[3,8]  
 BV BND1      x[3,9]  
 BV BND1      x[3,10] 
 BV BND1      x[3,11] 
 BV BND1      x[3,12] 
 BV BND1      x[3,13] 
 BV BND1      x[3,14] 
 BV BND1      x[3,15] 
 BV BND1      x[3,16] 
 BV BND1      x[3,17] 
ENDATA
